16
1 0 46
2 0 3
2 1 10
3 0 13
3 1 41
3 2 22
4 0 51
4 1 39
4 2 21
4 3 23
5 0 16
5 1 21
5 2 53
5 3 40
5 4 19
6 0 52
6 1 37
6 2 21
6 3 52
6 4 3
6 5 36
7 0 32
7 1 52
7 2 46
7 3 40
7 4 48
7 5 43
7 6 4
8 0 18
8 1 9
8 2 14
8 3 54
8 4 46
8 5 2
8 6 25
8 7 27
9 0 46
9 1 56
9 2 15
9 3 16
9 4 25
9 5 25
9 6 37
9 7 30
9 8 37
10 0 52
10 1 51
10 2 30
10 3 4
10 4 41
10 5 20
10 6 3
10 7 40
10 8 45
10 9 12
11 0 54
11 1 46
11 2 39
11 3 48
11 4 21
11 5 40
11 6 48
11 7 19
11 8 27
11 9 2
11 10 47
12 0 2
12 1 48
12 2 10
12 3 41
12 4 4
12 5 44
12 6 31
12 7 10
12 8 16
12 9 49
12 10 3
12 11 56
13 0 24
13 1 10
13 2 54
13 3 39
13 4 38
13 5 25
13 6 47
13 7 44
13 8 31
13 9 15
13 10 33
13 11 48
13 12 52
14 0 11
14 1 25
14 2 23
14 3 40
14 4 13
14 5 30
14 6 56
14 7 25
14 8 6
14 9 28
14 10 20
14 11 39
14 12 14
14 13 11
15 0 34
15 1 13
15 2 32
15 3 23
15 4 19
15 5 12
15 6 16
15 7 7
15 8 28
15 9 52
15 10 14
15 11 49
15 12 24
15 13 45
15 14 1
